Traveling Salesman Problem/TSP_generados/Aleatorio1621104055_18.tsp
NAME: Aleatorio1621104055_18.tsp
COMMENT: Randomly generated scenario
TYPE: TSP
DIMENSION: 18
EDGE_WEIGHT_TYPE: ATT
NODE_COORD_SECTION
1 31.66 7.01
2 33.6 38.48
3 0.93 18.73
4 9.88 28.4
5 9.99 40.1
6 46.05 33.41
7 30.8 44.05
8 4.36 46.3
9 24.55 8.62
10 20.28 48.4
11 1.75 27.82
12 14.95 24.76
13 17.34 10.08
14 39.66 18.9
15 22.9 5.44
16 48.86 9.67
17 27.33 14.89
18 7.81 16.31
