Traveling Salesman Problem/TSP_generados/Aleatorio1621104055_18.opt.tour
NAME: Aleatorio1621104055_18.opt.tour
COMMENT: Optimal solution for Aleatorio1621104055_18 (186.7787461924778)
TYPE: TOUR
DIMENSION: 18
TOUR_SECTION
1 16 14 6 2 7 10 8 5 12 4 11 3 18 13 15 9 17
-1
EOF
